0 50
2 98
7 70
15 61
14 80
26 94
24 56
32 84
37 92
30 54
40 74
45 78
25 75
20 80
35 51
4 60
49 99
22 59
17 98
46 61
10 78
20 75
43 82
35 74
23 54
50 100
58 74
52 51
65 72
69 79
62 89
75 68
84 73
89 82
99 99
95 77
93 63
53 99
75 75
66 66
55 77
60 90
81 81
90 100
60 60
73 79
59 59
60 89
78 89
70 70
100 50
95 44
58 49
73 41
85 36
90 34
64 33
78 31
73 27
64 23
89 15
100 4
51 1
90 10
80 20
70 37
60 49
65 40
90 38
78 25
60 39
86 45
73 33
68 8
59 21
50 0
19 3
45 22
42 47
35 36
27 31
23 41
5 48
31 14
13 13
11 19
1 1
1 40
20 20
11 40
40 11
35 20
49 5
9 20
40 15
35 25
25 40
24 16
19 30
45 45
